4
Lattice="2.5526554800834367 0.0 0.0 1.2763277400417183 2.210664492861818 0.0 0.0 0.0 20.168468943549097" Properties=species:S:1:pos:R:3:move_mask:L:1:tags:I:1:magmoms:R:1:forces:R:3 energy=-12.555269294268994 free_energy=-12.60453747463317 dipole="-0.20720143577402272 -0.11961865270354347 0.06934042703502206" magmom=0.0 pbc="T T F"
Cu       1.27632774       0.73688816       8.00000000  F        3       0.00000000      -0.00042664      -0.00024521       0.07318244
Cu       0.00136774       1.47456768      10.06456752  T        2       0.00000000      -0.00006797      -0.00003988      -0.00645289
Cu       0.00038450       0.00022162      12.29944837  T        1       0.00000000       0.00003774       0.00002119      -0.02068723
H        1.27655697       0.73701869      13.20219128  T        0       0.00000000       0.00040494       0.00023407       0.01408953
