17
Lattice="5.105310960166873 0.0 0.0 2.5526554800834367 4.421328985723636 0.0 0.0 0.0 22.252703415323648" Properties=species:S:1:pos:R:3:move_mask:L:1:tags:I:1:energies:R:1:forces:R:3 energy=2.859375131773317 free_energy=2.859375131773317 stress="0.00490781475345166 2.3965611191956883e-17 5.5285487962170585e-17 2.3965611191956883e-17 0.004907814753451322 4.0209139819361464e-17 5.5285487962170585e-17 4.0209139819361464e-17 -0.0011345157581264986" pbc="T T F"
Cu       0.00000000       0.00000000       8.00000000  F        4       0.34797487       0.00470838       0.00271838      -0.03386763
Cu       2.55265548       0.00000000       8.00000000  F        4       0.34797487      -0.00470838       0.00271838      -0.03386763
Cu       1.27632774       2.21066449       8.00000000  F        4       0.34797487       0.00000000      -0.00543676      -0.03386763
Cu       3.82898322       2.21066449       8.00000000  F        4       0.34859885      -0.00000000       0.00000000      -0.04819872
Cu       1.27632774       0.73688816      10.05243955  T        3       0.00332349      -0.00000000      -0.00000000      -0.00280511
Cu       3.82898322       0.73801421      10.04725915  T        3       0.00425943      -0.00000000      -0.01296449       0.02752482
Cu       2.55363067       2.94698963      10.04725915  T        3       0.00425943      -0.01122758       0.00648224       0.02752482
Cu       5.10433577       2.94698963      10.04725915  T        3       0.00425943       0.01122758       0.00648224       0.02752482
Cu      -0.00148305       1.47463257      12.11081656  T        2       0.00241961       0.00270660      -0.00156266       0.01301240
Cu       2.55413853       1.47463257      12.11081656  T        2       0.00241961      -0.00270660      -0.00156266       0.01301240
Cu       1.27632774       3.68444082      12.10764859  T        2       0.00381148      -0.00000000      -0.00000000      -0.00241805
Cu       3.82898322       3.68272834      12.11081656  T        2       0.00241961       0.00000000       0.00312531       0.01301240
Cu      -0.00087167      -0.00050326      14.16110905  T        1       0.22033411      -0.00551292      -0.00318288       0.00652177
Cu       2.55352715      -0.00050326      14.16110905  T        1       0.22033411       0.00551292      -0.00318288       0.00652177
Cu       1.27632774       2.21167101      14.16110905  T        1       0.22033411      -0.00000000       0.00636577       0.00652177
Cu       3.82898322       2.21066449      14.17504613  T        1       0.33466171       0.00000000       0.00000000      -0.01621557
H        1.27632774       0.73688816      15.83717481  T        0       0.44401553       0.00000000      -0.00000000       0.03006336
