13
Lattice="5.105310960166873 0.0 0.0 2.5526554800834367 4.421328985723636 0.0 0.0 0.0 16.168468943549097" Properties=species:S:1:pos:R:3:move_mask:L:1:tags:I:1:magmoms:R:1:forces:R:3 energy=-39.033084532075286 free_energy=-39.145321966066966 dipole="-0.31845753909518126 -0.1838673666128441 -7.89022598411531e-05" magmom=0.0 pbc="T T F"
Cu       1.27632774       0.73688816       6.00000000  F        3       0.00000000      -0.00036908      -0.00021319       0.02803098
Cu       3.82898322       0.73688816       6.00000000  F        3       0.00000000      -0.00046283      -0.06697986      -0.00244722
Cu       2.55265548       2.94755266       6.00000000  F        3       0.00000000      -0.05823764       0.03308921      -0.00244725
Cu       5.10531096       2.94755266       6.00000000  F        3       0.00000000       0.05701828       0.03291964      -0.00290582
Cu       0.00173781       1.47401075       8.08713792  T        2       0.00000000       0.01659665      -0.00938473      -0.00020156
Cu       2.55315952       1.47406738       8.08712761  T        2       0.00000000      -0.01670550      -0.00964508      -0.00049576
Cu       1.27741056       3.68506601       8.15093321  T        2       0.00000000       0.00010249       0.00005940       0.01415112
Cu       3.83005510       3.68582848       8.08713787  T        2       0.00000000       0.00017104       0.01906596      -0.00020166
Cu      -0.00272296      -0.00157194      10.21593542  T        1       0.00000000       0.00429230       0.00247776      -0.01160408
Cu       2.55638463      -0.00150268      10.21578395  T        1       0.00000000      -0.00346024       0.00168162      -0.01126939
Cu       1.27689082       2.21464533      10.21578409  T        1       0.00000000      -0.00027347      -0.00383753      -0.01126922
Cu       3.82947813       2.21095032      10.15688548  T        1       0.00000000       0.00091728       0.00052940      -0.04815772
H        1.27687209       0.73720156      11.12346329  T        0       0.00000000       0.00024469       0.00014157       0.00524847
