13
Lattice="5.105310960166873 0.0 0.0 2.5526554800834367 4.421328985723636 0.0 0.0 0.0 18.168468943549097" Properties=species:S:1:pos:R:3:move_mask:L:1:tags:I:1:energies:R:1:forces:R:3 energy=2.9060151600117825 free_energy=2.9060151600117825 stress="0.007287089056707016 0.000108667280752256 4.1061293502694607e-05 0.000108667280752256 0.007161610901855006 2.3706737038353224e-05 4.1061293502694607e-05 2.3706737038353224e-05 0.004877359378770619" pbc="T T F"
Cu       1.27632774       0.73688816       7.00000000  F        3       0.35087451      -0.00000009      -0.00000001       0.11924940
Cu       3.82898322       0.73688816       7.00000000  F        3       0.35087451       0.00000009       0.00000010       0.11924961
Cu       2.55265548       2.94755266       7.00000000  F        3       0.35087451       0.00000009       0.00000001       0.11924961
Cu       5.10531096       2.94755266       7.00000000  F        3       0.35087451      -0.00000009      -0.00000009       0.11924941
Cu      -0.00000000       1.47377633       9.08423447  F        2       0.01118821       0.00032027      -0.00015236       0.00095366
Cu       2.55265548       1.47377633       9.08423447  F        2       0.01060086      -0.00040927      -0.00023631       0.00202205
Cu       1.27632774       3.68444082       9.08423447  F        2       0.01140723      -0.00000673      -0.00000387       0.00042098
Cu       3.82898322       3.68444082       9.08423447  F        2       0.01118821       0.00002820       0.00035354       0.00095368
Cu       0.00000000       0.00000000      11.16846894  F        1       0.30977734       0.01549085       0.00894363      -0.09965148
Cu       2.55265548       0.00000000      11.16846894  F        1       0.18759731       0.00957658      -0.01227226      -0.13756379
Cu       1.27632774       2.21066449      11.16846894  F        1       0.18759731      -0.00583979       0.01442970      -0.13756379
Cu       3.82898322       2.21066449      11.16846894  F        1       0.32979139      -0.00924094      -0.00533524      -0.10493199
H        1.75483027       1.01315172      12.88032084  T        0       0.44336926      -0.00991916      -0.00572683      -0.00163736
