13
Lattice="5.105310960166873 0.0 0.0 2.5526554800834367 4.421328985723636 0.0 0.0 0.0 18.168468943549097" Properties=species:S:1:pos:R:3:move_mask:L:1:tags:I:1:energies:R:1:forces:R:3 energy=2.8975095660242522 free_energy=2.8975095660242522 stress="0.007180233117003697 3.7144780387535146e-13 6.379322416361533e-13 3.7144780387535146e-13 0.007180233131128731 -9.435680042684155e-12 6.379322416361533e-13 -9.435680042684155e-12 0.004872430241696565" pbc="T T F"
Cu       1.27632774       0.73688816       7.00000000  F        3       0.35087451      -0.00000007       0.00000000       0.11924959
Cu       3.82898322       0.73688816       7.00000000  F        3       0.35087451       0.00000007       0.00000000       0.11924959
Cu       2.55265548       2.94755266       7.00000000  F        3       0.35087451      -0.00000000       0.00000004       0.11924958
Cu       5.10531096       2.94755266       7.00000000  F        3       0.35087451       0.00000000      -0.00000004       0.11924946
Cu      -0.00000000       1.47377633       9.08423447  F        2       0.01133729      -0.00000000      -0.00004079       0.00061552
Cu       2.55265548       1.47377633       9.08423447  F        2       0.01005512       0.00000000      -0.00000002       0.00293094
Cu       1.27632774       3.68444082       9.08423447  F        2       0.01133729       0.00003531       0.00002040       0.00061554
Cu       3.82898322       3.68444082       9.08423447  F        2       0.01133729      -0.00003531       0.00002040       0.00061554
Cu       0.00000000       0.00000000      11.16846894  F        1       0.33675100      -0.00000000      -0.00000002      -0.10854226
Cu       2.55265548       0.00000000      11.16846894  F        1       0.22376576       0.00000000      -0.00670633      -0.12443292
Cu       1.27632774       2.21066449      11.16846894  F        1       0.22376576      -0.00580784       0.00335317      -0.12443292
Cu       3.82898322       2.21066449      11.16846894  F        1       0.22376576       0.00580784       0.00335317      -0.12443292
H        2.55265548       1.47377633      12.84780006  T        0       0.44189626      -0.00000000      -0.00000000       0.00006526
