13
Lattice="5.105310960166873 0.0 0.0 2.5526554800834367 4.421328985723636 0.0 0.0 0.0 18.168468943549097" Properties=species:S:1:pos:R:3:move_mask:L:1:tags:I:1:energies:R:1:forces:R:3 energy=2.903072326081758 free_energy=2.903072326081758 stress="0.0072652769378323415 9.103037226486793e-05 6.869029279192813e-05 9.103037226486793e-05 0.007160164131102864 3.965834667114356e-05 6.869029279192813e-05 3.965834667114356e-05 0.0048782994459230225" pbc="T T F"
Cu       1.27632774       0.73688816       7.00000000  F        3       0.35087451      -0.00000008      -0.00000000       0.11924942
Cu       3.82898322       0.73688816       7.00000000  F        3       0.35087451       0.00000008       0.00000010       0.11924962
Cu       2.55265548       2.94755266       7.00000000  F        3       0.35087451       0.00000009      -0.00000000       0.11924961
Cu       5.10531096       2.94755266       7.00000000  F        3       0.35087451      -0.00000009      -0.00000009       0.11924945
Cu      -0.00000000       1.47377633       9.08423447  F        2       0.01110686       0.00036684      -0.00018394       0.00111872
Cu       2.55265548       1.47377633       9.08423447  F        2       0.01070744      -0.00044910      -0.00025931       0.00180729
Cu       1.27632774       3.68444082       9.08423447  F        2       0.01141395      -0.00000891      -0.00000512       0.00040403
Cu       3.82898322       3.68444082       9.08423447  F        2       0.01110686       0.00002414       0.00040967       0.00111874
Cu       0.00000000       0.00000000      11.16846894  F        1       0.29049054       0.01517116       0.00875906      -0.09944755
Cu       2.55265548       0.00000000      11.16846894  F        1       0.19392231       0.01101989      -0.01077784      -0.13664151
Cu       1.27632774       2.21066449      11.16846894  F        1       0.19392231      -0.00382393       0.01493243      -0.13664151
Cu       3.82898322       2.21066449      11.16846894  F        1       0.33412970      -0.00564847      -0.00326113      -0.10696169
H        1.59524075       0.92101267      12.86859558  T        0       0.44277430      -0.01665161      -0.00961381      -0.00175462
