13
Lattice="5.105310960166873 0.0 0.0 2.5526554800834367 4.421328985723636 0.0 0.0 0.0 18.168468943549097" Properties=species:S:1:pos:R:3:move_mask:L:1:tags:I:1:energies:R:1:forces:R:3 energy=2.905997557941512 free_energy=2.905997557941512 stress="0.007286935171456943 0.00010877243766855432 -4.204548494239851e-05 0.00010877243766855432 0.007161335591854417 -2.427498262054728e-05 -4.204548494239851e-05 -2.427498262054728e-05 0.004877894169989463" pbc="T T F"
Cu       1.27632774       0.73688816       7.00000000  F        3       0.35087451      -0.00000010      -0.00000001       0.11924941
Cu       3.82898322       0.73688816       7.00000000  F        3       0.35087451       0.00000010       0.00000009       0.11924961
Cu       2.55265548       2.94755266       7.00000000  F        3       0.35087451       0.00000009       0.00000002       0.11924961
Cu       5.10531096       2.94755266       7.00000000  F        3       0.35087451      -0.00000009      -0.00000009       0.11924940
Cu      -0.00000000       1.47377633       9.08423447  F        2       0.01129548       0.00019911      -0.00009467       0.00073250
Cu       2.55265548       1.47377633       9.08423447  F        2       0.01036034      -0.00028426      -0.00016414       0.00247330
Cu       1.27632774       3.68444082       9.08423447  F        2       0.01138804       0.00003001       0.00001735       0.00051638
Cu       3.82898322       3.68444082       9.08423447  F        2       0.01129548       0.00001759       0.00021978       0.00073252
Cu       0.00000000       0.00000000      11.16846894  F        1       0.32979221       0.00923745       0.00533323      -0.10493584
Cu       2.55265548       0.00000000      11.16846894  F        1       0.18760877       0.00585228      -0.01446073      -0.13760888
Cu       1.27632774       2.21066449      11.16846894  F        1       0.18760877      -0.00959721       0.01229860      -0.13760887
Cu       3.82898322       2.21066449      11.16846894  F        1       0.30978045      -0.01548177      -0.00893839      -0.09966068
H        2.07414549       1.19750845      12.88035353  T        0       0.44336998       0.01002680       0.00578898      -0.00163846
