13
Lattice="5.105310960166873 0.0 0.0 2.5526554800834367 4.421328985723636 0.0 0.0 0.0 18.168468943549097" Properties=species:S:1:pos:R:3:move_mask:L:1:tags:I:1:energies:R:1:forces:R:3 energy=2.903026943640722 free_energy=2.903026943640722 stress="0.007264473198882488 9.08826627073366e-05 -6.992573516680153e-05 9.08826627073366e-05 0.007159530952448627 -4.03716520393079e-05 -6.992573516680153e-05 -4.03716520393079e-05 0.00487886347481863" pbc="T T F"
Cu       1.27632774       0.73688816       7.00000000  F        3       0.35087451      -0.00000009      -0.00000001       0.11924945
Cu       3.82898322       0.73688816       7.00000000  F        3       0.35087451       0.00000009       0.00000007       0.11924962
Cu       2.55265548       2.94755266       7.00000000  F        3       0.35087451       0.00000007       0.00000002       0.11924961
Cu       5.10531096       2.94755266       7.00000000  F        3       0.35087451      -0.00000007      -0.00000008       0.11924942
Cu      -0.00000000       1.47377633       9.08423447  F        2       0.01132231       0.00013307      -0.00007268       0.00067139
Cu       2.55265548       1.47377633       9.08423447  F        2       0.01022599      -0.00019963      -0.00011528       0.00269372
Cu       1.27632774       3.68444082       9.08423447  F        2       0.01136731      -0.00000270      -0.00000154       0.00051661
Cu       3.82898322       3.68444082       9.08423447  F        2       0.01132231       0.00000361       0.00015159       0.00067141
Cu       0.00000000       0.00000000      11.16846894  F        1       0.33413154       0.00564599       0.00325970      -0.10696519
Cu       2.55265548       0.00000000      11.16846894  F        1       0.19394811       0.00383097      -0.01496078      -0.13668017
Cu       1.27632774       2.21066449      11.16846894  F        1       0.19394811      -0.01104092       0.01079811      -0.13668017
Cu       3.82898322       2.21066449      11.16846894  F        1       0.29049983      -0.01515658      -0.00875064      -0.09946298
H        2.23373855       1.28964955      12.86867195  T        0       0.44276339       0.01678620       0.00969152      -0.00176271
