2

H       0.000000000000000      0.000000000000000      0.000000000000000
H       0.000000000000000      0.000000000000000      0.500000000000000
2

H       0.000000000000000      0.000000000000000      0.000000000000000
H       0.000000000000000      0.000000000000000      0.600000000000000
2

H       0.000000000000000      0.000000000000000      0.000000000000000
H       0.000000000000000      0.000000000000000      0.740000000000000
2

H       0.000000000000000      0.000000000000000      0.000000000000000
H       0.000000000000000      0.000000000000000      0.900000000000000
2

H       0.000000000000000      0.000000000000000      0.000000000000000
H       0.000000000000000      0.000000000000000      1.200000000000000
2

H       0.000000000000000      0.000000000000000      0.000000000000000
H       0.000000000000000      0.000000000000000      1.800000000000000
2

H       0.000000000000000      0.000000000000000      0.000000000000000
H       0.000000000000000      0.000000000000000      3.000000000000000
