13
Lattice="5.105310960166873 0.0 0.0 2.5526554800834367 4.421328985723636 0.0 0.0 0.0 20.168468943549097" Properties=species:S:1:pos:R:3:move_mask:L:1:tags:I:1:energies:R:1:forces:R:3 energy=2.893435609273947 free_energy=2.893435609273947 stress="0.004667565359562447 -1.791123521979855e-17 -4.3576383428579076e-17 -1.791123521979855e-17 0.0048914652276951685 -2.9536465413130445e-06 -4.3576383428579076e-17 -2.9536465413130445e-06 -0.00035970669119963355" pbc="T T F"
Cu       1.27632774       0.73688816       8.00000000  F        3       0.34801505      -0.00000000      -0.00050513      -0.00949722
Cu       3.82898322       0.73688816       8.00000000  F        3       0.34807427      -0.00000000      -0.00004229      -0.00903578
Cu       2.55265548       2.94755266       8.00000000  F        3       0.34817042       0.00214841       0.00063391      -0.01418705
Cu       5.10531096       2.94755266       8.00000000  F        3       0.34817042      -0.00214841       0.00063391      -0.01418705
Cu       0.00020701       1.47503231      10.05394659  T        2       0.01318047      -0.00633835      -0.00972725       0.00355279
Cu       2.55244847       1.47503231      10.05394659  T        2       0.01318047       0.00633835      -0.00972725       0.00355279
Cu       1.27632774       3.68265668      10.05324094  T        2       0.01388983      -0.00000000       0.01175973       0.00096418
Cu       3.82898322       3.68455095      10.05483394  T        2       0.01279778       0.00000000       0.00557870      -0.00744823
Cu      -0.00268725       0.00002748      12.10540112  T        1       0.18354540       0.00551862      -0.00209516       0.00888363
Cu       2.55534273       0.00002748      12.10540112  T        1       0.18354540      -0.00551862      -0.00209516       0.00888363
Cu       1.27632774       2.20760902      12.11069000  T        1       0.31912736       0.00000000      -0.00534692       0.02004941
Cu       3.82898322       2.21278219      12.10955472  T        1       0.31925451      -0.00000000       0.01096363       0.02463159
H        1.27632774      -0.00003788      13.82186818  T        0       0.44248423      -0.00000000      -0.00003072      -0.01616270
