13
Lattice="5.105310960166873 0.0 0.0 2.5526554800834367 4.421328985723636 0.0 0.0 0.0 20.168468943549097" Properties=species:S:1:pos:R:3:move_mask:L:1:tags:I:1:energies:R:1:forces:R:3 energy=2.8843167050478113 free_energy=2.8843167050478113 stress="0.004719796349178081 2.4346563357677826e-18 -2.6955185191264833e-18 2.4346563357677826e-18 0.004719796349178018 -2.6146706593598504e-17 -2.6955185191264833e-18 -2.6146706593598504e-17 -0.0004335117061192777" pbc="T T F"
Cu       1.27632774       0.73688816       8.00000000  F        3       0.34835092       0.00000000      -0.00000000      -0.02273957
Cu       3.82898322       0.73688816       8.00000000  F        3       0.34796110      -0.00000000      -0.00504133      -0.01593736
Cu       2.55265548       2.94755266       8.00000000  F        3       0.34796110      -0.00436592       0.00252067      -0.01593736
Cu       5.10531096       2.94755266       8.00000000  F        3       0.34796110       0.00436592       0.00252067      -0.01593736
Cu      -0.00013518       1.47385438      10.05157923  T        2       0.01315093       0.00031989      -0.00018469       0.01539952
Cu       2.55279066       1.47385438      10.05157923  T        2       0.01315093      -0.00031989      -0.00018469       0.01539952
Cu       1.27632774       3.68444082      10.05612702  T        2       0.01392234      -0.00000000      -0.00000000      -0.02744863
Cu       3.82898322       3.68428472      10.05157923  T        2       0.01315093       0.00000000       0.00036938       0.01539952
Cu      -0.00012898      -0.00007447      12.10570856  T        1       0.22178816       0.00790450       0.00456367       0.02313532
Cu       2.55278446      -0.00007447      12.10570856  T        1       0.22178816      -0.00790450       0.00456367       0.02313532
Cu       1.27632774       2.21081342      12.10570856  T        1       0.22178816      -0.00000000      -0.00912733       0.02313532
Cu       3.82898322       2.21066449      12.10751343  T        1       0.33371295      -0.00000000       0.00000000       0.01431942
H        1.27632774       0.73688816      13.78770161  T        0       0.43962995      -0.00000000       0.00000000      -0.03192367
