13
Lattice="5.105310960166873 0.0 0.0 2.5526554800834367 4.421328985723636 0.0 0.0 0.0 20.168468943549097" Properties=species:S:1:pos:R:3:move_mask:L:1:tags:I:1:energies:R:1:forces:R:3 energy=2.8840734909248096 free_energy=2.8840734909248096 stress="0.004801170601369083 2.3719628951343467e-17 -8.732459138003255e-18 2.3719628951343467e-17 0.004801170601368738 4.918935183118732e-19 -8.732459138003255e-18 4.918935183118732e-19 -0.00020665094082339202" pbc="T T F"
Cu       1.27632774       0.73688816       8.00000000  F        3       0.34815095      -0.00000838      -0.00000484      -0.00916651
Cu       3.82898322       0.73688816       8.00000000  F        3       0.34815095       0.00000838      -0.00000484      -0.00916651
Cu       2.55265548       2.94755266       8.00000000  F        3       0.34815095       0.00000000       0.00000967      -0.00916651
Cu       5.10531096       2.94755266       8.00000000  F        3       0.34808625       0.00000000       0.00000000      -0.00692841
Cu       0.00000000       1.47334889      10.05470636  T        2       0.01352559      -0.00000000       0.00640735      -0.00453467
Cu       2.55265548       1.47377633      10.05456226  T        2       0.01189182      -0.00000000       0.00000000       0.00435178
Cu       1.27669791       3.68465454      10.05470636  T        2       0.01352559      -0.00554893      -0.00320367      -0.00453467
Cu       3.82861305       3.68465454      10.05470636  T        2       0.01352559       0.00554893      -0.00320367      -0.00453467
Cu       0.00000000       0.00000000      12.10806416  T        1       0.33409738      -0.00000000      -0.00000000       0.02745312
Cu       2.55265548      -0.00089805      12.10870460  T        1       0.22196660       0.00000000       0.01512646       0.01855944
Cu       1.27555001       2.21111352      12.10870460  T        1       0.22196660       0.01309990      -0.00756323       0.01855944
Cu       3.82976095       2.21111352      12.10870460  T        1       0.22196660      -0.01309990      -0.00756323       0.01855944
H        2.55265548       1.47377633      13.79084683  T        0       0.43906864       0.00000000       0.00000000      -0.03945128
