13
Lattice="5.105310960166873 0.0 0.0 2.5526554800834367 4.421328985723636 0.0 0.0 0.0 20.168468943549097" Properties=species:S:1:pos:R:3:move_mask:L:1:tags:I:1:energies:R:1:forces:R:3 energy=2.9398901001227866 free_energy=2.9398901001227866 stress="0.0046219780253661255 -5.574677203622565e-17 -1.8956979688066093e-17 -5.574677203622565e-17 0.00462197802536611 -4.633806039852204e-17 -1.8956979688066093e-17 -4.633806039852204e-17 -0.001018662480639953" pbc="T T F"
Cu       1.27632774       0.73688816       8.00000000  F        3       0.34779007      -0.00048644      -0.00028084      -0.03159567
Cu       3.82898322       0.73688816       8.00000000  F        3       0.34779007       0.00048644      -0.00028084      -0.03159567
Cu       2.55265548       2.94755266       8.00000000  F        3       0.34779007       0.00000000       0.00056169      -0.03159567
Cu       5.10531096       2.94755266       8.00000000  F        3       0.34817430       0.00000000      -0.00000000      -0.04515229
Cu      -0.00000000       1.47641804      10.04891361  T        2       0.01435424       0.00000000      -0.02727483       0.00713458
Cu       2.55265548       1.47377633      10.04922510  T        2       0.01360762      -0.00000000       0.00000000       0.01697219
Cu       1.27403995       3.68311997      10.04891361  T        2       0.01435424       0.02362070       0.01363742       0.00713458
Cu       3.83127101       3.68311997      10.04891361  T        2       0.01435424      -0.02362070       0.01363742       0.00713458
Cu      -0.00000000      -0.00000000      12.09368450  T        1       0.04581911       0.00000000      -0.00000000       0.00500512
Cu       2.55265548       0.00013625      12.10196775  T        1       0.33097074       0.00000000      -0.00104781       0.03767776
Cu       1.27644574       2.21059637      12.10196775  T        1       0.33097074      -0.00090743       0.00052390       0.03767776
Cu       3.82886522       2.21059637      12.10196775  T        1       0.33097074       0.00090743       0.00052390       0.03767776
H        0.00000000       0.00000000      14.01143029  T        0       0.45294393       0.00000000       0.00000000      -0.01647504
