Cu H 
 1.0000000000000000
     2.5526554800834367    0.0000000000000000    0.0000000000000000
     1.2763277400417183    2.2106644928618180    0.0000000000000000
     0.0000000000000000    0.0000000000000000   18.2527034153236478
 Cu  H  
   4   1
Selective dynamics
Cartesian
  0.0000000000000000  0.0000000000000000  6.0000000000000000   F   F   F
  1.2763277400417183  0.7368881642872727  8.0842344717745487   T   T   T
 -0.0000000000000000  1.4737763285745453 10.1684689435490974   T   T   T
  0.0000000000000000  0.0000000000000000 12.2527034153236478   T   T   T
  1.2763277400417183  0.7368881642872727 13.7527034153236478   T   T   T
