13
Lattice="5.105310960166873 0.0 0.0 2.5526554800834367 4.421328985723636 0.0 0.0 0.0 18.168468943549097" Properties=species:S:1:pos:R:3:move_mask:L:1:tags:I:1:energies:R:1:forces:R:3 energy=2.8976047047493796 free_energy=2.8976047047493796 stress="0.007182055014686118 4.761294073069647e-17 1.833249945080578e-18 4.761294073069647e-17 0.007182055014686032 -2.1912441327449155e-17 1.833249945080578e-18 -2.1912441327449155e-17 0.004872808821910031" pbc="T T F"
Cu       1.27632774       0.73688816       7.00000000  F        3       0.35087451       0.00000000       0.00000000       0.11924946
Cu       3.82898322       0.73688816       7.00000000  F        3       0.35087451      -0.00000000       0.00000007       0.11924960
Cu       2.55265548       2.94755266       7.00000000  F        3       0.35087451       0.00000006      -0.00000003       0.11924960
Cu       5.10531096       2.94755266       7.00000000  F        3       0.35087451      -0.00000006      -0.00000003       0.11924960
Cu      -0.00000000       1.47377633       9.08423447  F        2       0.01094077       0.00038174      -0.00022040       0.00148372
Cu       2.55265548       1.47377633       9.08423447  F        2       0.01094077      -0.00038174      -0.00022040       0.00148372
Cu       1.27632774       3.68444082       9.08423447  F        2       0.01141642      -0.00000000      -0.00000000       0.00040091
Cu       3.82898322       3.68444082       9.08423447  F        2       0.01094077      -0.00000000       0.00044079       0.00148372
Cu       0.00000000       0.00000000      11.16846894  F        1       0.22372630      -0.00582765      -0.00336460      -0.12445809
Cu       2.55265548       0.00000000      11.16846894  F        1       0.22372630       0.00582765      -0.00336460      -0.12445809
Cu       1.27632774       2.21066449      11.16846894  F        1       0.22372630       0.00000000       0.00672920      -0.12445809
Cu       3.82898322       2.21066449      11.16846894  F        1       0.33674803      -0.00000000       0.00000000      -0.10854147
H        1.27632774       0.73688816      12.84765150  T        0       0.44194102      -0.00000000       0.00000000       0.00006542
