4
Lattice="2.5526554800834367 0.0 0.0 1.2763277400417183 2.210664492861818 0.0 0.0 0.0 16.168468943549097" Properties=species:S:1:pos:R:3:move_mask:L:1:tags:I:1:magmoms:R:1:forces:R:3 energy=-12.927224393907512 free_energy=-12.97642143750468 dipole="-0.2082345351815033 -0.12021305433329547 0.07510310204337536" magmom=0.0 pbc="T T F"
Cu       1.27632774       0.73688816       6.00000000  F        3       0.00000000       0.00000073       0.00000178      -0.00737497
Cu      -0.00000101       1.47377785       8.04968606  T        2       0.00000000      -0.00000004      -0.00000107       0.00220271
Cu      -0.00000157      -0.00000135      10.25704934  T        1       0.00000000      -0.00000578      -0.00000416      -0.02265296
H        1.27632219       0.73688274      11.16082957  T        0       0.00000000       0.00000227       0.00000190       0.02482551
