13
Lattice="5.105310960166873 0.0 0.0 2.5526554800834367 4.421328985723636 0.0 0.0 0.0 20.168468943549097" Properties=species:S:1:pos:R:3:move_mask:L:1:tags:I:1:magmoms:R:1:forces:R:3 energy=-40.09024201123972 free_energy=-40.204317749437806 dipole="-0.07231019056650526 0.19724309651466526 -0.00633076624389451" magmom=0.0 pbc="T T F"
Cu       1.27632774       0.73688816       8.00000000  F        3       0.00000000      -0.00001041      -0.01670115       0.03275944
Cu       3.82898322       0.73688816       8.00000000  F        3       0.00000000       0.00001532      -0.03196447       0.04555175
Cu       2.55265548       2.94755266       8.00000000  F        3       0.00000000      -0.03592411       0.03198509       0.00580531
Cu       5.10531096       2.94755266       8.00000000  F        3       0.00000000       0.03590032       0.03201035       0.00580403
Cu      -0.00003416       1.47170799      10.10148299  T        2       0.00000000      -0.00011528      -0.00249044      -0.02327934
Cu       2.55269205       1.47170531      10.10147094  T        2       0.00000000       0.00000434      -0.00237764      -0.02327385
Cu       1.27631910       3.68063327      10.14085441  T        2       0.00000000       0.00009486       0.00817529      -0.01849019
Cu       3.82898131       3.69018187      10.04413765  T        2       0.00000000      -0.00002773      -0.01777020       0.01870464
Cu      -0.01275875      -0.00725142      12.19460427  T        1       0.00000000       0.03728022       0.00112944       0.01292703
Cu       2.56538593      -0.00726721      12.19460511  T        1       0.00000000      -0.03719457       0.00110399       0.01289817
Cu       1.27624668       2.18463275      12.18357493  T        1       0.00000000       0.00007838      -0.01459101      -0.02033910
Cu       3.82891501       2.22755221      12.15379790  T        1       0.00000000       0.00000969      -0.00161218      -0.02198227
H        1.27631146       0.00781404      13.24892898  T        0       0.00000000       0.00000484       0.01606806      -0.02071056
