13
Lattice="5.105310960166873 0.0 0.0 2.5526554800834367 4.421328985723636 0.0 0.0 0.0 20.168468943549097" Properties=species:S:1:pos:R:3:move_mask:L:1:tags:I:1:magmoms:R:1:forces:R:3 energy=-40.228088167018846 free_energy=-40.33993015623954 dipole="-0.31104240546345857 -0.17958041652368467 -0.0013538439729604186" magmom=0.0 pbc="T T F"
Cu       1.27632774       0.73688816       8.00000000  F        3       0.00000000      -0.00000195      -0.00000113       0.00317999
Cu       3.82898322       0.73688816       8.00000000  F        3       0.00000000       0.00000285      -0.07636047      -0.00368334
Cu       2.55265548       2.94755266       8.00000000  F        3       0.00000000      -0.06612868       0.03818271      -0.00368334
Cu       5.10531096       2.94755266       8.00000000  F        3       0.00000000       0.06614881       0.03819103      -0.00368584
Cu       0.00376799       1.47160434      10.06860845  T        2       0.00000000      -0.01326172       0.00763254       0.00407310
Cu       2.54889643       1.47160604      10.06860526  T        2       0.00000000       0.01333742       0.00770036       0.00397559
Cu       1.27632703       3.68444041      10.14596180  T        2       0.00000000      -0.00000857      -0.00000495      -0.00609623
Cu       3.82898622       3.68878999      10.06860845  T        2       0.00000000      -0.00002088      -0.01530125       0.00407310
Cu      -0.00242108      -0.00139781      12.18953106  T        1       0.00000000       0.00550428       0.00317790      -0.00107877
Cu       2.55501859      -0.00136511      12.18951911  T        1       0.00000000      -0.00541198       0.00309703      -0.00113323
Cu       1.27632708       2.21339356      12.18951911  T        1       0.00000000      -0.00002389      -0.00623543      -0.00113323
Cu       3.82897656       2.21066065      12.11884734  T        1       0.00000000       0.00004242       0.00002449      -0.02725401
H        1.27628398       0.73686290      13.10271085  T        0       0.00000000       0.00000214       0.00000124       0.00296423
