13
Lattice="5.105310960166873 0.0 0.0 2.5526554800834367 4.421328985723636 0.0 0.0 0.0 20.168468943549097" Properties=species:S:1:pos:R:3:move_mask:L:1:tags:I:1:magmoms:R:1:forces:R:3 energy=-40.221039884685624 free_energy=-40.333384227366025 dipole="-0.08286666348640828 -0.04784309047065722 -0.0016977476488160624" magmom=0.0 pbc="T T F"
Cu       1.27632774       0.73688816       8.00000000  F        3       0.00000000       0.00311138       0.00179636      -0.00308234
Cu       3.82898322       0.73688816       8.00000000  F        3       0.00000000      -0.00311138       0.00179636      -0.00308234
Cu       2.55265548       2.94755266       8.00000000  F        3       0.00000000       0.00000000      -0.00359272      -0.00308234
Cu       5.10531096       2.94755266       8.00000000  F        3       0.00000000      -0.00000000       0.00000000       0.05214781
Cu      -0.00000000       1.47397657      10.11468432  T        2       0.00000000       0.00000000       0.01139149      -0.01789246
Cu       2.55265548       1.47377633      10.02904691  T        2       0.00000000       0.00000000      -0.00000000       0.03248748
Cu       1.27615432       3.68434070      10.11468432  T        2       0.00000000      -0.00986532      -0.00569575      -0.01789246
Cu       3.82915664       3.68434070      10.11468432  T        2       0.00000000       0.00986532      -0.00569575      -0.01789246
Cu       0.00000000       0.00000000      12.15899195  T        1       0.00000000      -0.00000000      -0.00000000      -0.02499178
Cu       2.55265548       0.00060835      12.18728980  T        1       0.00000000       0.00000000      -0.01106259      -0.00300588
Cu       1.27685459       2.21036032      12.18728980  T        1       0.00000000      -0.00958048       0.00553129      -0.00300588
Cu       3.82845638       2.21036032      12.18728980  T        1       0.00000000       0.00958048       0.00553129      -0.00300588
H        2.55265548       1.47377633      13.10564754  T        0       0.00000000       0.00000000       0.00000000       0.01970937
