13
Lattice="5.105310960166873 0.0 0.0 2.5526554800834367 4.421328985723636 0.0 0.0 0.0 20.168468943549097" Properties=species:S:1:pos:R:3:move_mask:L:1:tags:I:1:magmoms:R:1:forces:R:3 energy=-39.607194000190844 free_energy=-39.73070354848318 dipole="-0.00016239597427387408 -9.375935944778384e-05 -0.05948146179310815" magmom=0.0 pbc="T T F"
Cu       1.27632774       0.73688816       8.00000000  F        3       0.00000000      -0.03023658      -0.01745710       0.03287535
Cu       3.82898322       0.73688816       8.00000000  F        3       0.00000000       0.03023658      -0.01745710       0.03287535
Cu       2.55265548       2.94755266       8.00000000  F        3       0.00000000      -0.00000000       0.03491419       0.03287535
Cu       5.10531096       2.94755266       8.00000000  F        3       0.00000000       0.00000000       0.00000000       0.00924194
Cu      -0.00000000       1.46881685      10.08444221  T        2       0.00000000       0.00000000       0.00199504      -0.01493200
Cu       2.55265548       1.47377633      10.10056052  T        2       0.00000000      -0.00000000      -0.00000000      -0.03319100
Cu       1.28062278       3.68692056      10.08444221  T        2       0.00000000      -0.00172776      -0.00099752      -0.01493200
Cu       3.82468818       3.68692056      10.08444221  T        2       0.00000000       0.00172776      -0.00099752      -0.01493200
Cu       0.00000000       0.00000000      12.17069408  T        1       0.00000000       0.00000000      -0.00000000       0.00339626
Cu       2.55265548       0.00021862      12.16226291  T        1       0.00000000       0.00000000      -0.00710422      -0.00677203
Cu       1.27651707       2.21055518      12.16226291  T        1       0.00000000      -0.00615243       0.00355211      -0.00677203
Cu       3.82879389       2.21055518      12.16226291  T        1       0.00000000       0.00615243       0.00355211      -0.00677203
H       -0.00000000       0.00000000      13.69190263  T        0       0.00000000      -0.00000000      -0.00000000       0.01227062
