4
Lattice="2.5526554800834367 0.0 0.0 1.2763277400417183 2.210664492861818 0.0 0.0 0.0 16.168468943549097" Properties=species:S:1:pos:R:3:move_mask:L:1:tags:I:1:magmoms:R:1:forces:R:3 energy=-12.531167267173954 free_energy=-12.55523498973531 dipole="-0.2054481819210485 -0.11859919179226856 0.07168231525158282" magmom=0.0 pbc="T T F"
Cu       1.27632774       0.73688816       6.00000000  F        3       0.00000000      -0.00020178      -0.00011480      -0.04094472
Cu       0.00177646       1.47480515       8.05550951  T        2       0.00000000      -0.00052272      -0.00030314       0.00894766
Cu       0.00034695       0.00019972      10.26407863  T        1       0.00000000       0.00072148       0.00041628      -0.01815041
H        1.27652602       0.73699977      11.16544831  T        0       0.00000000      -0.00004951      -0.00002829       0.02082577
