13
Lattice="5.105310960166873 0.0 0.0 2.5526554800834367 4.421328985723636 0.0 0.0 0.0 20.168468943549097" Properties=species:S:1:pos:R:3:tags:I:1:energies:R:1:forces:R:3 energy=2.8841906201156946 free_energy=2.8841906201156946 stress="0.0048363722310330965 2.07426810439066e-17 -2.5946971290053232e-18 2.07426810439066e-17 0.0048363722310329725 7.051500144304715e-18 -2.5946971290053232e-18 7.051500144304715e-18 -9.150398945603293e-05" pbc="T T F"
Cu       1.27632774       0.73688816       8.02067525        3       0.34761892       0.00000000      -0.00000000      -0.01576358
Cu       3.82898322       0.73841139       8.01192924        3       0.34851593      -0.00000000      -0.01530741       0.00848190
Cu       2.55397463       2.94679104       8.01192924        3       0.34851593      -0.01325661       0.00765370       0.00848190
Cu       5.10399181       2.94679104       8.01192924        3       0.34851593       0.01325661       0.00765370       0.00848190
Cu      -0.00165703       1.47473301      10.07200695        2       0.01271872       0.00196446      -0.00113418      -0.00053927
Cu       2.55431251       1.47473301      10.07200695        2       0.01271872      -0.00196446      -0.00113418      -0.00053927
Cu       1.27632774       3.68444082      10.06881856        2       0.01344532       0.00000000      -0.00000000      -0.01833756
Cu       3.82898322       3.68252745      10.07200695        2       0.01271872      -0.00000000       0.00226836      -0.00053927
Cu      -0.00007906      -0.00004565      12.12362360        1       0.22038618      -0.01344209      -0.00776079       0.00156102
Cu       2.55273454      -0.00004565      12.12362360        1       0.22038618       0.01344209      -0.00776079       0.00156102
Cu       1.27632774       2.21075579      12.12362360        1       0.22038618      -0.00000000       0.01552159       0.00156102
Cu       3.82898322       2.21066449      12.13689631        1       0.33466019      -0.00000000      -0.00000000      -0.01876674
H        1.27632774       0.73688816      13.80095283        0       0.44360370       0.00000000       0.00000000       0.02435693
