13
Lattice="5.105310960166873 0.0 0.0 2.5526554800834367 4.421328985723636 0.0 0.0 0.0 18.168468943549097" Properties=species:S:1:pos:R:3:move_mask:L:1:tags:I:1:energies:R:1:forces:R:3 energy=2.906015161697178 free_energy=2.906015161697178 stress="0.007287089171623978 0.00010866728028053731 4.10612924763881e-05 0.00010866728028053731 0.007161611004579717 2.3706748264490824e-05 4.10612924763881e-05 2.3706748264490824e-05 0.004877359677487981" pbc="T T F"
Cu       1.27632774       0.73688816       7.00000000  F        3       0.35087451      -0.00000009      -0.00000005       0.11924941
Cu       3.82898322       0.73688816       7.00000000  F        3       0.35087451       0.00000009       0.00000006       0.11924962
Cu       2.55265548       2.94755266       7.00000000  F        3       0.35087451       0.00000009       0.00000005       0.11924962
Cu       5.10531096       2.94755266       7.00000000  F        3       0.35087451      -0.00000009      -0.00000005       0.11924942
Cu      -0.00000000       1.47377633       9.08423447  F        2       0.01118821       0.00032027      -0.00015234       0.00095367
Cu       2.55265548       1.47377633       9.08423447  F        2       0.01060086      -0.00040927      -0.00023629       0.00202206
Cu       1.27632774       3.68444082       9.08423447  F        2       0.01140723      -0.00000673      -0.00000389       0.00042098
Cu       3.82898322       3.68444082       9.08423447  F        2       0.01118821       0.00002820       0.00035353       0.00095367
Cu       0.00000000       0.00000000      11.16846894  F        1       0.30977734       0.01549085       0.00894364      -0.09965149
Cu       2.55265548       0.00000000      11.16846894  F        1       0.18759731       0.00957658      -0.01227225      -0.13756380
Cu       1.27632774       2.21066449      11.16846894  F        1       0.18759731      -0.00583979       0.01442969      -0.13756380
Cu       3.82898322       2.21066449      11.16846894  F        1       0.32979139      -0.00924094      -0.00533526      -0.10493200
H        1.75483027       1.01315173      12.88032085  T        0       0.44336926      -0.00991916      -0.00572683      -0.00163736
