13
Lattice="5.105310960166873 0.0 0.0 2.5526554800834367 4.421328985723636 0.0 0.0 0.0 18.168468943549097" Properties=species:S:1:pos:R:3:move_mask:L:1:tags:I:1:energies:R:1:forces:R:3 energy=2.8994828877196746 free_energy=2.8994828877196746 stress="0.00722715956130755 5.5341502161799316e-05 6.148911381381854e-05 5.5341502161799316e-05 0.00716325669896649 3.550075641261907e-05 6.148911381381854e-05 3.550075641261907e-05 0.0048770897140440325" pbc="T T F"
Cu       1.27632774       0.73688816       7.00000000  F        3       0.35087451      -0.00000005      -0.00000003       0.11924945
Cu       3.82898322       0.73688816       7.00000000  F        3       0.35087451       0.00000005       0.00000006       0.11924962
Cu       2.55265548       2.94755266       7.00000000  F        3       0.35087451       0.00000008       0.00000001       0.11924962
Cu       5.10531096       2.94755266       7.00000000  F        3       0.35087451      -0.00000008      -0.00000004       0.11924952
Cu      -0.00000000       1.47377633       9.08423447  F        2       0.01101649       0.00036620      -0.00021123       0.00133413
Cu       2.55265548       1.47377633       9.08423447  F        2       0.01081829      -0.00046191      -0.00026668       0.00160058
Cu       1.27632774       3.68444082       9.08423447  F        2       0.01141633      -0.00000536      -0.00000309       0.00040039
Cu       3.82898322       3.68444082       9.08423447  F        2       0.01101649       0.00000017       0.00042275       0.00133413
Cu       0.00000000       0.00000000      11.16846894  F        1       0.26205967       0.00871953       0.00503423      -0.10605394
Cu       2.55265548       0.00000000      11.16846894  F        1       0.20564616       0.01065778      -0.00810503      -0.13313202
Cu       1.27632774       2.21066449      11.16846894  F        1       0.20564616      -0.00169027       0.01328243      -0.13313202
Cu       3.82898322       2.21066449      11.16846894  F        1       0.33620297      -0.00250710      -0.00144748      -0.10814737
H        1.43581907       0.82897053      12.85472901  T        0       0.44216229      -0.01507905      -0.00870589      -0.00120209
