13
Lattice="5.105310960166873 0.0 0.0 2.5526554800834367 4.421328985723636 0.0 0.0 0.0 18.168468943549097" Properties=species:S:1:pos:R:3:move_mask:L:1:tags:I:1:energies:R:1:forces:R:3 energy=2.9030269453338384 free_energy=2.9030269453338384 stress="0.007264473313897702 9.088266232182458e-05 -6.992573517395685e-05 9.088266232182458e-05 0.007159531054785125 -4.037164202599467e-05 -6.992573517395685e-05 -4.037164202599467e-05 0.004878863772930091" pbc="T T F"
Cu       1.27632774       0.73688816       7.00000000  F        3       0.35087451      -0.00000009      -0.00000005       0.11924945
Cu       3.82898322       0.73688816       7.00000000  F        3       0.35087451       0.00000009       0.00000003       0.11924962
Cu       2.55265548       2.94755266       7.00000000  F        3       0.35087451       0.00000007       0.00000006       0.11924962
Cu       5.10531096       2.94755266       7.00000000  F        3       0.35087451      -0.00000007      -0.00000004       0.11924943
Cu      -0.00000000       1.47377633       9.08423447  F        2       0.01132231       0.00013307      -0.00007266       0.00067140
Cu       2.55265548       1.47377633       9.08423447  F        2       0.01022599      -0.00019963      -0.00011526       0.00269373
Cu       1.27632774       3.68444082       9.08423447  F        2       0.01136731      -0.00000270      -0.00000156       0.00051660
Cu       3.82898322       3.68444082       9.08423447  F        2       0.01132231       0.00000361       0.00015157       0.00067140
Cu       0.00000000       0.00000000      11.16846894  F        1       0.33413154       0.00564599       0.00325971      -0.10696519
Cu       2.55265548       0.00000000      11.16846894  F        1       0.19394811       0.00383097      -0.01496076      -0.13668018
Cu       1.27632774       2.21066449      11.16846894  F        1       0.19394811      -0.01104092       0.01079810      -0.13668018
Cu       3.82898322       2.21066449      11.16846894  F        1       0.29049983      -0.01515658      -0.00875065      -0.09946299
H        2.23373855       1.28964955      12.86867196  T        0       0.44276339       0.01678620       0.00969152      -0.00176271
