13
Lattice="5.105310960166873 0.0 0.0 2.5526554800834367 4.421328985723636 0.0 0.0 0.0 18.168468943549097" Properties=species:S:1:pos:R:3:move_mask:L:1:tags:I:1:energies:R:1:forces:R:3 energy=2.907097730702532 free_energy=2.907097730702532 stress="0.007294098457283973 0.00011376948836220568 -3.671420690050984e-07 0.00011376948836220568 0.007162728767820938 -2.1196957240164372e-07 -3.671420690050984e-07 -2.1196957240164372e-07 0.004877697573619381" pbc="T T F"
Cu       1.27632774       0.73688816       7.00000000  F        3       0.35087451      -0.00000010      -0.00000006       0.11924940
Cu       3.82898322       0.73688816       7.00000000  F        3       0.35087451       0.00000010       0.00000005       0.11924961
Cu       2.55265548       2.94755266       7.00000000  F        3       0.35087451       0.00000009       0.00000006       0.11924961
Cu       5.10531096       2.94755266       7.00000000  F        3       0.35087451      -0.00000009      -0.00000005       0.11924941
Cu      -0.00000000       1.47377633       9.08423447  F        2       0.01125136       0.00026190      -0.00012130       0.00082571
Cu       2.55265548       1.47377633       9.08423447  F        2       0.01048710      -0.00035399      -0.00020437       0.00224421
Cu       1.27632774       3.68444082       9.08423447  F        2       0.01139726       0.00002619       0.00001512       0.00048275
Cu       3.82898322       3.68444082       9.08423447  F        2       0.01125136       0.00002590       0.00028746       0.00082571
Cu       0.00000000       0.00000000      11.16846894  F        1       0.32217733       0.01285072       0.00741936      -0.10221842
Cu       2.55265548       0.00000000      11.16846894  F        1       0.18563082       0.00771255      -0.01335818      -0.13762962
Cu       1.27632774       2.21066449      11.16846894  F        1       0.18563082      -0.00771225       0.01335835      -0.13762962
Cu       3.82898322       2.21066449      11.16846894  F        1       0.32217890      -0.01285017      -0.00741905      -0.10221888
H        1.91447868       1.10532478      12.88478457  T        0       0.44359474       0.00003915       0.00002261      -0.00167990
