13
Lattice="5.105310960166873 0.0 0.0 2.5526554800834367 4.421328985723636 0.0 0.0 0.0 18.168468943549097" Properties=species:S:1:pos:R:3:move_mask:L:1:tags:I:1:energies:R:1:forces:R:3 energy=2.9030723277738346 free_energy=2.9030723277738346 stress="0.0072652770528493895 9.10303718789982e-05 6.869029153832878e-05 9.10303718789982e-05 0.007160164233431864 3.965835831033677e-05 6.869029153832878e-05 3.965835831033677e-05 0.004878299744057602" pbc="T T F"
Cu       1.27632774       0.73688816       7.00000000  F        3       0.35087451      -0.00000008      -0.00000004       0.11924942
Cu       3.82898322       0.73688816       7.00000000  F        3       0.35087451       0.00000008       0.00000006       0.11924962
Cu       2.55265548       2.94755266       7.00000000  F        3       0.35087451       0.00000009       0.00000004       0.11924962
Cu       5.10531096       2.94755266       7.00000000  F        3       0.35087451      -0.00000009      -0.00000005       0.11924946
Cu      -0.00000000       1.47377633       9.08423447  F        2       0.01110686       0.00036684      -0.00018392       0.00111873
Cu       2.55265548       1.47377633       9.08423447  F        2       0.01070744      -0.00044910      -0.00025929       0.00180730
Cu       1.27632774       3.68444082       9.08423447  F        2       0.01141395      -0.00000890      -0.00000514       0.00040402
Cu       3.82898322       3.68444082       9.08423447  F        2       0.01110686       0.00002414       0.00040965       0.00111873
Cu       0.00000000       0.00000000      11.16846894  F        1       0.29049054       0.01517116       0.00875907      -0.09944755
Cu       2.55265548       0.00000000      11.16846894  F        1       0.19392231       0.01101989      -0.01077782      -0.13664152
Cu       1.27632774       2.21066449      11.16846894  F        1       0.19392231      -0.00382393       0.01493241      -0.13664152
Cu       3.82898322       2.21066449      11.16846894  F        1       0.33412970      -0.00564847      -0.00326115      -0.10696170
H        1.59524075       0.92101267      12.86859559  T        0       0.44277430      -0.01665161      -0.00961381      -0.00175462
