13
Lattice="5.105310960166873 0.0 0.0 2.5526554800834367 4.421328985723636 0.0 0.0 0.0 18.168468943549097" Properties=species:S:1:pos:R:3:move_mask:L:1:tags:I:1:energies:R:1:forces:R:3 energy=2.8994096269921728 free_energy=2.8994096269921728 stress="0.007225734495748472 5.508642650505555e-05 -6.27461231568682e-05 5.508642650505555e-05 0.007162126169405426 -3.622649109526288e-05 -6.27461231568682e-05 -3.622649109526288e-05 0.004877322125295089" pbc="T T F"
Cu       1.27632774       0.73688816       7.00000000  F        3       0.35087451      -0.00000008      -0.00000005       0.11924951
Cu       3.82898322       0.73688816       7.00000000  F        3       0.35087451       0.00000008       0.00000001       0.11924962
Cu       2.55265548       2.94755266       7.00000000  F        3       0.35087451       0.00000005       0.00000007       0.11924962
Cu       5.10531096       2.94755266       7.00000000  F        3       0.35087451      -0.00000005      -0.00000003       0.11924945
Cu      -0.00000000       1.47377633       9.08423447  F        2       0.01133467       0.00006508      -0.00005472       0.00063590
Cu       2.55265548       1.47377633       9.08423447  F        2       0.01010802      -0.00010194      -0.00005886       0.00286472
Cu       1.27632774       3.68444082       9.08423447  F        2       0.01134656       0.00001454       0.00000839       0.00057110
Cu       3.82898322       3.68444082       9.08423447  F        2       0.01133467      -0.00001485       0.00008372       0.00063590
Cu       0.00000000       0.00000000      11.16846894  F        1       0.33620548       0.00250621       0.00144696      -0.10814970
Cu       2.55265548       0.00000000      11.16846894  F        1       0.20568312       0.00169087      -0.01328808      -0.13314044
Cu       1.27632774       2.21066449      11.16846894  F        1       0.20568312      -0.01066238       0.00810838      -0.13314044
Cu       3.82898322       2.21066449      11.16846894  F        1       0.26208103      -0.00871056      -0.00502904      -0.10606418
H        2.39316298       1.38169329      12.85484846  T        0       0.44213491       0.01521302       0.00878324      -0.00121108
