13
Lattice="5.105310960166873 0.0 0.0 2.5526554800834367 4.421328985723636 0.0 0.0 0.0 18.168468943549097" Properties=species:S:1:pos:R:3:move_mask:L:1:tags:I:1:energies:R:1:forces:R:3 energy=2.897509567706353 free_energy=2.897509567706353 stress="0.007180233123791114 2.033721492011753e-17 4.49781639766889e-18 2.033721492011753e-17 0.007180233123790863 -4.2162682117213684e-17 4.49781639766889e-18 -4.2162682117213684e-17 0.004872430270300742" pbc="T T F"
Cu       1.27632774       0.73688816       7.00000000  F        3       0.35087451      -0.00000007      -0.00000004       0.11924959
Cu       3.82898322       0.73688816       7.00000000  F        3       0.35087451       0.00000007      -0.00000004       0.11924959
Cu       2.55265548       2.94755266       7.00000000  F        3       0.35087451       0.00000000       0.00000008       0.11924959
Cu       5.10531096       2.94755266       7.00000000  F        3       0.35087451       0.00000000       0.00000000       0.11924947
Cu      -0.00000000       1.47377633       9.08423447  F        2       0.01133729       0.00000000      -0.00004077       0.00061553
Cu       2.55265548       1.47377633       9.08423447  F        2       0.01005512      -0.00000000      -0.00000000       0.00293095
Cu       1.27632774       3.68444082       9.08423447  F        2       0.01133729       0.00003531       0.00002039       0.00061553
Cu       3.82898322       3.68444082       9.08423447  F        2       0.01133729      -0.00003531       0.00002039       0.00061553
Cu       0.00000000       0.00000000      11.16846894  F        1       0.33675100       0.00000000      -0.00000000      -0.10854226
Cu       2.55265548       0.00000000      11.16846894  F        1       0.22376576      -0.00000000      -0.00670633      -0.12443295
Cu       1.27632774       2.21066449      11.16846894  F        1       0.22376576      -0.00580785       0.00335316      -0.12443295
Cu       3.82898322       2.21066449      11.16846894  F        1       0.22376576       0.00580785       0.00335316      -0.12443295
H        2.55265548       1.47377633      12.84780006  T        0       0.44189626       0.00000000      -0.00000000       0.00006532
