13
Lattice="5.105310960166873 0.0 0.0 2.5526554800834367 4.421328985723636 0.0 0.0 0.0 18.168468943549097" Properties=species:S:1:pos:R:3:move_mask:L:1:tags:I:1:energies:R:1:forces:R:3 energy=2.905997559627517 free_energy=2.905997559627517 stress="0.0072869352863700046 0.0001087724371967573 -4.204548517814023e-05 0.0001087724371967573 0.007161335694578108 -2.4274972185853486e-05 -4.204548517814023e-05 -2.4274972185853486e-05 0.004877894468686019" pbc="T T F"
Cu       1.27632774       0.73688816       7.00000000  F        3       0.35087451      -0.00000010      -0.00000006       0.11924942
Cu       3.82898322       0.73688816       7.00000000  F        3       0.35087451       0.00000010       0.00000005       0.11924962
Cu       2.55265548       2.94755266       7.00000000  F        3       0.35087451       0.00000009       0.00000006       0.11924962
Cu       5.10531096       2.94755266       7.00000000  F        3       0.35087451      -0.00000009      -0.00000005       0.11924941
Cu      -0.00000000       1.47377633       9.08423447  F        2       0.01129548       0.00019911      -0.00009465       0.00073251
Cu       2.55265548       1.47377633       9.08423447  F        2       0.01036034      -0.00028426      -0.00016412       0.00247331
Cu       1.27632774       3.68444082       9.08423447  F        2       0.01138804       0.00003001       0.00001733       0.00051637
Cu       3.82898322       3.68444082       9.08423447  F        2       0.01129548       0.00001759       0.00021976       0.00073251
Cu       0.00000000       0.00000000      11.16846894  F        1       0.32979221       0.00923745       0.00533324      -0.10493584
Cu       2.55265548       0.00000000      11.16846894  F        1       0.18760877       0.00585228      -0.01446072      -0.13760888
Cu       1.27632774       2.21066449      11.16846894  F        1       0.18760877      -0.00959721       0.01229858      -0.13760888
Cu       3.82898322       2.21066449      11.16846894  F        1       0.30978045      -0.01548177      -0.00893841      -0.09966069
H        2.07414549       1.19750846      12.88035354  T        0       0.44336998       0.01002680       0.00578898      -0.00163846
