Cu H 
 1.0000000000000000
     5.1053109601668734    0.0000000000000000    0.0000000000000000
     2.5526554800834367    4.4213289857236360    0.0000000000000000
     0.0000000000000000    0.0000000000000000   16.1684689435490974
 Cu  H  
  12   1
Selective dynamics
Cartesian
  1.2763277400417183  0.7368881642872727  6.0000000000000000   F   F   F
  3.8289832201251550  0.7368881642872727  6.0000000000000000   F   F   F
  2.5526554800834367  2.9475526571490906  6.0000000000000000   F   F   F
  5.1053109601668734  2.9475526571490906  6.0000000000000000   F   F   F
 -0.0000000000000000  1.4737763285745453  8.0842344717745487   T   T   T
  2.5526554800834367  1.4737763285745453  8.0842344717745487   T   T   T
  1.2763277400417181  3.6844408214363629  8.0842344717745487   T   T   T
  3.8289832201251550  3.6844408214363629  8.0842344717745487   T   T   T
  0.0000000000000000  0.0000000000000000 10.1684689435490974   T   T   T
  2.5526554800834367  0.0000000000000000 10.1684689435490974   T   T   T
  1.2763277400417183  2.2106644928618180 10.1684689435490974   T   T   T
  3.8289832201251550  2.2106644928618180 10.1684689435490974   T   T   T
  1.2763277400417183  0.7368881642872727 11.6684689435490974   T   T   T
