5
Lattice="2.5526554800834367 0.0 0.0 1.2763277400417183 2.210664492861818 0.0 0.0 0.0 18.252703415323648" Properties=species:S:1:pos:R:3:move_mask:L:1:tags:I:1:magmoms:R:1:forces:R:3 energy=-16.385284033668217 free_energy=-16.40418590774873 dipole="-0.17632834157460534 -0.10178524924484902 0.05532808725542789" magmom=0.0 pbc="T T F"
Cu       0.00000000       0.00000000       6.00000000  F        4       0.00000000      -0.00068233      -0.00039334       0.01809230
Cu       1.27561314       0.73647616       8.03509444  T        3       0.00000000       0.00068821       0.00039798       0.00820067
Cu       0.00093221       1.47431649      10.14498002  T        2       0.00000000      -0.00043478      -0.00025291       0.00768330
Cu       0.00036705       0.00021099      12.35271253  T        1       0.00000000      -0.00027935      -0.00015810       0.01663439
H        1.27652728       0.73700141      13.27981372  T        0       0.00000000       0.00055871       0.00032020      -0.01242356
