4
Lattice="2.5526554800834367 0.0 0.0 1.2763277400417183 2.210664492861818 0.0 0.0 0.0 16.168468943549097" Properties=species:S:1:pos:R:3:move_mask:L:1:tags:I:1:magmoms:R:1:forces:R:3 energy=-12.554081054962252 free_energy=-12.60348329710907 dipole="-0.20818377132341903 -0.12018512621575328 0.07361766064454875" magmom=0.0 pbc="T T F"
Cu       1.27632774       0.73688816       6.00000000  F        3       0.00000000      -0.00035228      -0.00020218       0.01868926
Cu       0.00149731       1.47464267       8.06986136  T        2       0.00000000      -0.00041158      -0.00023855      -0.04516473
Cu       0.00032922       0.00018970      10.27821298  T        1       0.00000000       0.00069843       0.00040315       0.03451447
H        1.27666482       0.73708082      11.19458398  T        0       0.00000000      -0.00004095      -0.00002372      -0.03760998
