Cu
 1.0000000000000000
     5.1053109601668734    0.0000000000000000    0.0000000000000000
     2.5526554800834367    4.4213289857236360    0.0000000000000000
     0.0000000000000000    0.0000000000000000   20.1684689435490974
 Cu 
  12
Cartesian
  1.2763277400417183  0.7368881642872727  8.0000000000000000
  3.8289832201251550  0.7368881642872727  8.0000000000000000
  2.5526554800834367  2.9475526571490906  8.0000000000000000
  5.1053109601668734  2.9475526571490906  8.0000000000000000
 -0.0000000000000000  1.4737763285745453 10.0842344717745487
  2.5526554800834367  1.4737763285745453 10.0842344717745487
  1.2763277400417181  3.6844408214363629 10.0842344717745487
  3.8289832201251550  3.6844408214363629 10.0842344717745487
  0.0000000000000000  0.0000000000000000 12.1684689435490974
  2.5526554800834367  0.0000000000000000 12.1684689435490974
  1.2763277400417183  2.2106644928618180 12.1684689435490974
  3.8289832201251550  2.2106644928618180 12.1684689435490974
