4
Lattice="2.5526554800834367 0.0 0.0 1.2763277400417183 2.210664492861818 0.0 0.0 0.0 16.168468943549097" Properties=species:S:1:pos:R:3:tags:I:1:magmoms:R:1:forces:R:3 energy=-12.551278007813721 free_energy=-12.600549402875037 dipole="-0.21018663910148022 -0.12134720346958133 0.07735946739621698" magmom=0.0 pbc="T T F"
Cu       1.27534758       0.73632243       6.09014648        3       0.00000000      -0.00016363      -0.00009388      -0.00300930
Cu       0.00077209       1.47422319       8.15144254        2       0.00000000      -0.00030221      -0.00017410       0.00319482
Cu       0.00004431       0.00002557      10.37079340        1       0.00000000       0.00041121       0.00023688       0.00665075
H        1.27640857       0.73693361      11.27819518        0       0.00000000      -0.00006153      -0.00003591      -0.00019885
