28
Lattice="7.65796644025031 0.0 0.0 3.828983220125155 6.6319934785854535 0.0 0.0 0.0 20.168468943549097" Properties=species:S:1:pos:R:3:move_mask:L:1:tags:I:1:energies:R:1:forces:R:3 energy=6.435084219629864 free_energy=6.435084219629864 stress="0.004658762018722187 -5.733704797899304e-18 -1.4178018219286607e-18 -5.733704797899304e-18 0.004658762018722145 -2.9408597909153928e-18 -1.4178018219286607e-18 -2.9408597909153928e-18 -0.0005091589717891134" pbc="T T F"
Cu       1.27632774       0.73688816       8.00000000  F        3       0.34823052       0.00000000       0.00000000      -0.02643993
Cu       3.82898322       0.73688816       8.00000000  F        3       0.34815740       0.00708476      -0.00208770      -0.01332505
Cu       6.38163870       0.73688816       8.00000000  F        3       0.34815740      -0.00708476      -0.00208770      -0.01332505
Cu       2.55265548       2.94755266       8.00000000  F        3       0.34815740       0.00173438       0.00717943      -0.01332505
Cu       5.10531096       2.94755266       8.00000000  F        3       0.34763328      -0.00000000       0.00000000       0.00025713
Cu       7.65796644       2.94755266       8.00000000  F        3       0.34815740      -0.00173438       0.00717943      -0.01332505
Cu       3.82898322       5.15821715       8.00000000  F        3       0.34815740      -0.00535038      -0.00509174      -0.01332505
Cu       6.38163870       5.15821715       8.00000000  F        3       0.34815740       0.00535038      -0.00509174      -0.01332505
Cu       8.93429418       5.15821715       8.00000000  F        3       0.34807978      -0.00000000      -0.00000000      -0.00191063
Cu      -0.00100357       1.47435574      10.04997214  T        2       0.01369492       0.00111752      -0.00064520       0.01591079
Cu       2.55365905       1.47435574      10.04997214  T        2       0.01369492      -0.00111752      -0.00064520       0.01591079
Cu       5.10531096       1.47407621      10.05664904  T        2       0.01325171       0.00000000      -0.00035888      -0.00611278
Cu       1.27632774       3.68319800      10.05522666  T        2       0.01403680       0.00000000       0.02126904      -0.01943380
Cu       3.82924292       3.68429088      10.05664904  T        2       0.01325171      -0.00031080       0.00017944      -0.00611278
Cu       6.38137900       3.68429088      10.05664904  T        2       0.01325171       0.00031080       0.00017944      -0.00611278
Cu       2.55373180       5.89572673      10.05522666  T        2       0.01403680      -0.01841953      -0.01063452      -0.01943380
Cu       5.10531096       5.89394649      10.04997214  T        2       0.01369492      -0.00000000       0.00129040       0.01591079
Cu       7.65689012       5.89572673      10.05522666  T        2       0.01403680       0.01841953      -0.01063452      -0.01943380
Cu       0.00118711       0.00068538      12.10085688  T        1       0.22125092      -0.01408057      -0.00812942       0.02442033
Cu       2.55146837       0.00068538      12.10085688  T        1       0.22125092       0.01408057      -0.00812942       0.02442033
Cu       5.10531096      -0.00117868      12.10868631  T        1       0.34758060       0.00000000       0.01018473       0.01578673
Cu       1.27632774       2.20929374      12.10085688  T        1       0.22125092       0.00000000       0.01625884       0.02442033
Cu       3.82763922       2.20988853      12.11168919  T        1       0.34336478       0.00361736       0.00208848       0.00163658
Cu       6.38298270       2.20988853      12.11168919  T        1       0.34336478      -0.00361736       0.00208848       0.00163658
Cu       2.55163472       4.42191832      12.10868631  T        1       0.34758060       0.00882024      -0.00509237       0.01578673
Cu       5.10531096       4.42288090      12.11168919  T        1       0.34336478      -0.00000000      -0.00417697       0.00163658
Cu       7.65898720       4.42191832      12.10868631  T        1       0.34758060      -0.00882024      -0.00509237       0.01578673
H        1.27632774       0.73688816      13.78058692  T        0       0.44265701      -0.00000000      -0.00000000       0.01142017
