4
Lattice="2.5526554800834367 0.0 0.0 1.2763277400417183 2.210664492861818 0.0 0.0 0.0 16.168468943549097" Properties=species:S:1:pos:R:3:move_mask:L:1:magmoms:R:1:forces:R:3 energy=-11.985585652976328 free_energy=-12.034276473859356 dipole="-0.2812355104508892 -0.16237138432524004 0.05531998931187459" magmom=0.0 pbc="T T T"
Cu       1.27632774       0.73688816       6.00000000  F       0.00000000      -0.00141445      -0.00081670       0.03767525
Cu      -0.00000000       1.47377633       8.08423447  T       0.00000000       0.00138089       0.00079880      -0.24340227
Cu       0.00000000       0.00000000      10.16846894  T       0.00000000       0.00000578       0.00000577       1.66948747
H        1.27632774       0.73688816      11.66846894  T       0.00000000       0.00001679       0.00000590      -1.46093463
