13
Lattice="5.105310960166873 0.0 0.0 2.5526554800834367 4.421328985723636 0.0 0.0 0.0 20.168468943549097" Properties=species:S:1:pos:R:3:move_mask:L:1:tags:I:1:energies:R:1:forces:R:3 energy=2.8907331183162053 free_energy=2.8907331183162053 stress="0.0056224702339955175 3.565905178108329e-17 3.0538905579674886e-17 3.565905178108329e-17 0.005622470233995423 -5.0021659940332565e-17 3.0538905579674886e-17 -5.0021659940332565e-17 0.0020819724615053596" pbc="T T F"
Cu       1.27632774       0.73688816       8.00000000  F        3       0.35027907       0.00000000       0.00000000       0.11860980
Cu       3.82898322       0.73688816       8.00000000  F        3       0.35029112      -0.00000000      -0.00000935       0.11850130
Cu       2.55265548       2.94755266       8.00000000  F        3       0.35029112      -0.00000810       0.00000468       0.11850130
Cu       5.10531096       2.94755266       8.00000000  F        3       0.35029112       0.00000810       0.00000468       0.11850130
Cu      -0.00000000       1.47377633      10.08423447  F        2       0.01162121      -0.00355565       0.00205286      -0.11394671
Cu       2.55265548       1.47377633      10.08423447  F        2       0.01162121       0.00355565       0.00205286      -0.11394671
Cu       1.27632774       3.68444082      10.08423447  F        2       0.01262127      -0.00000000      -0.00000000      -0.12237564
Cu       3.82898322       3.68444082      10.08423447  F        2       0.01162121      -0.00000000      -0.00410571      -0.11394671
Cu      -0.00014377      -0.00008301      12.13994033  T        1       0.22093391      -0.01316566      -0.00760120      -0.01397187
Cu       2.55279925      -0.00008301      12.13994033  T        1       0.22093391       0.01316566      -0.00760120      -0.01397187
Cu       1.27632774       2.21083051      12.13994033  T        1       0.22093391      -0.00000000       0.01520239      -0.01397187
Cu       3.82898322       2.21066449      12.14392769  T        1       0.33476982       0.00000000       0.00000000      -0.00420648
H        1.27632774       0.73688816      13.81601798  T        0       0.44452424       0.00000000      -0.00000000       0.03622416
