4
Lattice="2.5526554800834367 0.0 0.0 1.2763277400417183 2.210664492861818 0.0 0.0 0.0 16.168468943549097" Properties=species:S:1:pos:R:3:move_mask:L:1:tags:I:1:magmoms:R:1:forces:R:3 energy=-12.281567054710056 free_energy=-12.328606619774357 dipole="0.08053784318365222 0.04651403281778295 0.012181062949084508" magmom=0.0 pbc="T T F"
Cu       1.27632774       0.73688816       6.00000000  F        3       0.00000000       0.01891440       0.01092124      -0.02395840
Cu       0.02351065       1.48735135       8.09805236  T        2       0.00000000      -0.02761656      -0.01594551      -0.00277694
Cu      -0.02009805      -0.01160473      10.29072162  T        1       0.00000000      -0.01932434      -0.01115420       0.01082900
H        1.25683736       0.72563446      11.16329887  T        0       0.00000000       0.02692002       0.01553995      -0.01828083
